# Objective value = 2.9758614570053032e+02
x[0] 0
x[1] 0
x[2] 1
x[3] 1
x[4] 1
x[5] 0
x[6] 1
x[7] 0
x[8] 1
x[9] 0
x[10] 0
x[11] 1
x[12] 1
x[13] 1
x[14] 0
x[15] 1
x[16] 0
x[17] 0
x[18] 0
x[19] 0
x[20] 0
x[21] 0
x[22] 1
x[23] 0
x[24] 0
x[25] 1
x[26] 0
x[27] 0
x[28] 1
x[29] 1
x[30] 0
x[31] 0
x[32] 1
x[33] 1
x[34] 1
x[35] 0
x[36] 0
x[37] 0
x[38] 0
x[39] 0
x[40] 1
x[41] 0
x[42] 1
x[43] 0
x[44] 1
x[45] 1
x[46] 1
x[47] 0
x[48] 0
x[49] 0
x[50] 0
x[51] 1
x[52] 1
x[53] 0
x[54] 0
x[55] 1
x[56] 1
x[57] 0
x[58] 1
x[59] 1
x[60] 1
x[61] 0
x[62] 1
x[63] 1
x[64] 0
x[65] 0
x[66] 1
x[67] 0
x[68] 0
x[69] 0
x[70] 1
x[71] 0
x[72] 1
x[73] 1
x[74] 1
x[75] 0
x[76] 1
x[77] 1
x[78] 1
x[79] 1
x[80] 0
x[81] 1
x[82] 1
x[83] 0
x[84] 0
x[85] 1
x[86] 0
x[87] 0
x[88] 0
x[89] 0
x[90] 1
x[91] 0
x[92] 0
x[93] 1
x[94] 0
x[95] 0
x[96] 1
x[97] 0
x[98] 1
x[99] 0
x[100] 0
x[101] 0
x[102] 1
x[103] 0
x[104] 0
x[105] 0
x[106] 1
x[107] 0
x[108] 0
x[109] 1
x[110] 0
x[111] 0
x[112] 0
x[113] 0
x[114] 0
x[115] 0
x[116] 0
x[117] 0
x[118] 1
x[119] 1
x[120] 0
x[121] 1
x[122] 0
x[123] 0
x[124] 1
x[125] 1
x[126] 1
x[127] 0
x[128] 1
x[129] 0
x[130] 0
x[131] 0
x[132] 1
x[133] 0
x[134] 1
x[135] 1
x[136] 1
x[137] 0
x[138] 1
x[139] 1
x[140] 1
x[141] 1
x[142] 0
x[143] 1
x[144] 0
x[145] 1
x[146] 0
x[147] 0
x[148] 1
x[149] 1
x[150] 1
x[151] 1
x[152] 0
x[153] 0
x[154] 1
x[155] 0
x[156] 0
x[157] 0
x[158] 1
x[159] 0
x[160] 1
x[161] 1
x[162] 0
x[163] 1
x[164] 0
x[165] 0
x[166] 1
x[167] 1
x[168] 0
x[169] 0
x[170] 1
x[171] 0
x[172] 1
x[173] 1
x[174] 1
x[175] 1
x[176] 1
x[177] 0
x[178] 1
x[179] 1
x[180] 1
x[181] 1
x[182] 0
x[183] 1
x[184] 1
x[185] 1
x[186] 0
x[187] 0
x[188] 0
x[189] 1
x[190] 1
x[191] 0
x[192] 1
x[193] 0
x[194] 0
x[195] 0
x[196] 1
x[197] 0
x[198] 1
x[199] 0
x[200] 1
x[201] 1
x[202] 0
x[203] 1
x[204] 0
x[205] 0
x[206] 0
x[207] 1
x[208] 0
x[209] 0
x[210] 1
x[211] 0
x[212] 1
x[213] 1
x[214] 1
x[215] 0
x[216] 0
x[217] 1
x[218] 1
x[219] 0
x[220] 1
x[221] 1
x[222] 0
x[223] 0
x[224] 0
x[225] 1
x[226] 0
x[227] 1
x[228] 0
x[229] 1
x[230] 1
x[231] 1
x[232] 0
x[233] 1
x[234] 1
x[235] 1
x[236] 1
x[237] 1
x[238] 0
x[239] 1
x[240] 1
x[241] 0
x[242] 0
x[243] 1
x[244] 1
x[245] 0
x[246] 1
x[247] 1
x[248] 0
x[249] 1
x[250] 1
x[251] 1
x[252] 0
x[253] 0
x[254] 1
x[255] 1
x[256] 1
x[257] 1
x[258] 1
x[259] 1
x[260] 1
x[261] 1
x[262] 1
x[263] 1
x[264] 0
x[265] 0
x[266] 0
x[267] 0
x[268] 1
x[269] 1
x[270] 1
x[271] 0
x[272] 0
x[273] 1
x[274] 1
x[275] 0
x[276] 0
x[277] 1
x[278] 0
x[279] 1
x[280] 0
x[281] 0
x[282] 0
x[283] 1
x[284] 1
x[285] 1
x[286] 1
x[287] 1
x[288] 0
x[289] 0
x[290] 0
x[291] 1
x[292] 1
x[293] 0
x[294] 0
x[295] 0
x[296] 1
x[297] 1
x[298] 1
x[299] 0
x[300] 1
x[301] 0
x[302] 0
x[303] 0
x[304] 1
x[305] 0
x[306] 0
x[307] 1
x[308] 1
x[309] 1
x[310] 1
x[311] 1
x[312] 1
x[313] 0
x[314] 0
x[315] 1
x[316] 0
x[317] 1
x[318] 0
x[319] 0
x[320] 0
x[321] 0
x[322] 0
x[323] 1
x[324] 1
x[325] 1
x[326] 1
x[327] 0
x[328] 1
x[329] 1
x[330] 0
x[331] 0
x[332] 1
x[333] 0
x[334] 0
x[335] 1
x[336] 0
x[337] 0
x[338] 0
x[339] 1
x[340] 0
x[341] 0
x[342] 0
x[343] 0
x[344] 0
x[345] 0
x[346] 0
x[347] 0
x[348] 0
x[349] 1
x[350] 0
x[351] 0
x[352] 1
x[353] 0
x[354] 0
x[355] 0
x[356] 0
x[357] 1
x[358] 1
x[359] 0
x[360] 0
x[361] 1
x[362] 1
x[363] 0
x[364] 1
x[365] 0
x[366] 0
x[367] 0
x[368] 0
x[369] 1
x[370] 0
x[371] 1
x[372] 1
x[373] 1
x[374] 1
x[375] 1
x[376] 0
x[377] 0
x[378] 0
x[379] 0
x[380] 0
x[381] 0
x[382] 0
x[383] 1
x[384] 1
x[385] 0
x[386] 0
x[387] 0
x[388] 1
x[389] 0
x[390] 0
x[391] 0
x[392] 1
x[393] 0
x[394] 1
x[395] 0
x[396] 1
x[397] 0
x[398] 1
x[399] 0
x[400] 1
x[401] 0
x[402] 1
x[403] 0
x[404] 1
x[405] 1
x[406] 1
x[407] 1
x[408] 1
x[409] 1
x[410] 1
x[411] 0
x[412] 1
x[413] 0
x[414] 0
x[415] 1
x[416] 1
x[417] 0
x[418] 1
x[419] 0
x[420] 0
x[421] 0
x[422] 1
x[423] 1
x[424] 0
x[425] 1
x[426] 0
x[427] 0
x[428] 0
x[429] 1
x[430] 1
x[431] 0
x[432] 0
x[433] 1
x[434] 1
x[435] 0
x[436] 1
x[437] 0
x[438] 1
x[439] 0
x[440] 1
x[441] 1
x[442] 0
x[443] 1
x[444] 1
x[445] 0
x[446] 1
x[447] 1
x[448] 0
x[449] 0
x[450] 1
x[451] 1
x[452] 0
x[453] 1
x[454] 0
x[455] 0
x[456] 0
x[457] 1
x[458] 1
x[459] 0
x[460] 0
x[461] 1
x[462] 0
x[463] 0
x[464] 1
x[465] 1
x[466] 1
x[467] 0
x[468] 0
x[469] 0
x[470] 0
x[471] 0
x[472] 1
x[473] 1
x[474] 0
x[475] 0
x[476] 1
x[477] 1
x[478] 0
x[479] 1
x[480] 0
x[481] 0
x[482] 1
x[483] 1
x[484] 1
x[485] 0
x[486] 1
x[487] 1
x[488] 1
x[489] 0
x[490] 0
x[491] 1
x[492] 1
x[493] 0
x[494] 0
x[495] 0
x[496] 1
x[497] 0
x[498] 0
x[499] 1
x[500] 0
x[501] 0
x[502] 0
x[503] 1
x[504] 0
x[505] 0
x[506] 1
x[507] 0
x[508] 1
x[509] 0
x[510] 1
x[511] 1
x[512] 1
x[513] 1
x[514] 1
x[515] 1
x[516] 1
x[517] 1
x[518] 1
x[519] 1
x[520] 1
x[521] 1
x[522] 1
x[523] 0
x[524] 1
x[525] 0
x[526] 1
x[527] 0
x[528] 1
x[529] 1
x[530] 1
x[531] 1
x[532] 1
x[533] 0
x[534] 1
x[535] 1
x[536] 0
x[537] 0
x[538] 1
x[539] 0
x[540] 1
x[541] 0
x[542] 0
x[543] 0
x[544] 0
x[545] 1
x[546] 1
x[547] 0
x[548] 1
x[549] 0
x[550] 1
x[551] 0
x[552] 1
x[553] 0
x[554] 0
x[555] 0
x[556] 0
x[557] 0
x[558] 1
x[559] 0
x[560] 0
x[561] 1
x[562] 1
x[563] 0
x[564] 0
x[565] 0
x[566] 0
x[567] 1
x[568] 0
x[569] 0
x[570] 0
x[571] 0
x[572] 0
x[573] 1
x[574] 0
x[575] 0
x[576] 0
x[577] 1
x[578] 0
x[579] 0
x[580] 1
x[581] 0
x[582] 1
x[583] 0
x[584] 0
x[585] 0
x[586] 1
x[587] 0
x[588] 0
x[589] 0
x[590] 1
x[591] 1
x[592] 1
x[593] 0
x[594] 0
x[595] 0
x[596] 1
x[597] 1
x[598] 1
x[599] 1
x[600] 0
x[601] 0
x[602] 0
x[603] 0
x[604] 0
x[605] 1
x[606] 1
x[607] 1
x[608] 0
x[609] 1
x[610] 0
x[611] 1
x[612] 1
x[613] 0
x[614] 1
x[615] 0
x[616] 0
x[617] 0
x[618] 0
x[619] 0
x[620] 1
x[621] 1
x[622] 0
x[623] 0
x[624] 1
x[625] 0
x[626] 1
x[627] 0
x[628] 1
x[629] 0
x[630] 0
x[631] 0
x[632] 1
x[633] 1
x[634] 0
x[635] 0
x[636] 0
x[637] 1
x[638] 0
x[639] 0
x[640] 1
x[641] 1
x[642] 1
x[643] 0
x[644] 1
x[645] 1
x[646] 1
x[647] 1
x[648] 0
x[649] 0
x[650] 0
x[651] 0
x[652] 0
x[653] 1
x[654] 0
x[655] 0
x[656] 0
x[657] 0
x[658] 1
x[659] 1
x[660] 0
x[661] 1
x[662] 1
x[663] 1
x[664] 1
x[665] 0
x[666] 1
x[667] 1
x[668] 1
x[669] 0
x[670] 1
x[671] 0
x[672] 1
x[673] 0
x[674] 1
x[675] 0
x[676] 1
x[677] 1
x[678] 0
x[679] 1
x[680] 1
x[681] 1
x[682] 0
x[683] 0
x[684] 1
x[685] 1
x[686] 1
x[687] 1
x[688] 0
x[689] 1
x[690] 1
x[691] 1
x[692] 1
x[693] 0
x[694] 1
x[695] 1
x[696] 0
x[697] 0
x[698] 0
x[699] 0
x[700] 1
x[701] 0
x[702] 1
x[703] 1
x[704] 0
x[705] 0
x[706] 1
x[707] 0
x[708] 1
x[709] 1
x[710] 0
x[711] 0
x[712] 0
x[713] 0
x[714] 1
x[715] 1
x[716] 1
x[717] 0
x[718] 0
x[719] 0
x[720] 1
x[721] 0
x[722] 0
x[723] 1
x[724] 1
x[725] 0
x[726] 0
x[727] 0
x[728] 1
x[729] 1
x[730] 0
x[731] 0
x[732] 1
x[733] 0
x[734] 1
x[735] 0
x[736] 1
x[737] 1
x[738] 0
x[739] 0
x[740] 0
x[741] 0
x[742] 0
x[743] 0
x[744] 0
x[745] 0
x[746] 0
x[747] 0
x[748] 0
x[749] 0
x[750] 1
x[751] 0
x[752] 0
x[753] 1
x[754] 0
x[755] 1
x[756] 0
x[757] 0
x[758] 0
x[759] 0
x[760] 1
x[761] 0
x[762] 0
x[763] 1
x[764] 0
x[765] 1
x[766] 1
x[767] 1
x[768] 1
x[769] 0
x[770] 1
x[771] 1
x[772] 1
x[773] 0
x[774] 1
x[775] 0
x[776] 0
x[777] 1
x[778] 0
x[779] 0
x[780] 1
x[781] 0
x[782] 1
x[783] 1
x[784] 0
x[785] 0
x[786] 0
x[787] 1
x[788] 1
x[789] 1
x[790] 0
x[791] 1
x[792] 0
x[793] 0
x[794] 0
x[795] 0
x[796] 0
x[797] 1
x[798] 0
x[799] 0
x[800] 0
x[801] 0
x[802] 0
x[803] 1
x[804] 1
x[805] 1
x[806] 1
x[807] 1
x[808] 1
x[809] 0
x[810] 0
x[811] 0
x[812] 0
x[813] 0
x[814] 0
x[815] 0
x[816] 1
x[817] 0
x[818] 1
x[819] 1
x[820] 0
x[821] 0
x[822] 1
x[823] 0
x[824] 0
x[825] 1
x[826] 0
x[827] 1
x[828] 0
x[829] 1
x[830] 0
x[831] 1
x[832] 0
x[833] 0
x[834] 0
x[835] 1
x[836] 1
x[837] 0
x[838] 1
x[839] 1
x[840] 0
x[841] 0
x[842] 1
x[843] 1
x[844] 0
x[845] 0
x[846] 1
x[847] 0
x[848] 0
x[849] 0
x[850] 1
x[851] 1
x[852] 1
x[853] 1
x[854] 0
x[855] 1
x[856] 0
x[857] 1
x[858] 0
x[859] 0
x[860] 1
x[861] 0
x[862] 1
x[863] 0
x[864] 1
x[865] 1
x[866] 0
x[867] 1
x[868] 0
x[869] 0
x[870] 0
x[871] 0
x[872] 0
x[873] 0
x[874] 1
x[875] 1
x[876] 0
x[877] 0
x[878] 1
x[879] 1
x[880] 0
x[881] 1
x[882] 1
x[883] 1
x[884] 1
x[885] 0
x[886] 0
x[887] 1
x[888] 1
x[889] 0
x[890] 0
x[891] 1
x[892] 0
x[893] 1
x[894] 1
x[895] 1
x[896] 0
x[897] 1
x[898] 0
x[899] 1
x[900] 0
x[901] 1
x[902] 1
x[903] 0
x[904] 0
x[905] 1
x[906] 0
x[907] 1
x[908] 1
x[909] 0
x[910] 1
x[911] 0
x[912] 0
x[913] 1
x[914] 0
x[915] 1
x[916] 0
x[917] 0
x[918] 1
x[919] 0
x[920] 0
x[921] 1
x[922] 0
x[923] 0
x[924] 1
x[925] 1
x[926] 1
x[927] 0
x[928] 1
x[929] 0
x[930] 1
x[931] 1
x[932] 1
x[933] 1
x[934] 0
x[935] 0
x[936] 1
x[937] 1
x[938] 1
x[939] 0
x[940] 1
x[941] 1
x[942] 1
x[943] 0
x[944] 0
x[945] 1
x[946] 1
x[947] 1
x[948] 0
x[949] 0
x[950] 1
x[951] 0
x[952] 1
x[953] 0
x[954] 1
x[955] 0
x[956] 1
x[957] 0
x[958] 0
x[959] 0
x[960] 0
x[961] 0
x[962] 0
x[963] 0
x[964] 1
x[965] 1
x[966] 0
x[967] 0
x[968] 0
x[969] 1
x[970] 0
x[971] 0
x[972] 1
x[973] 1
x[974] 0
x[975] 1
x[976] 0
x[977] 0
x[978] 1
x[979] 1
x[980] 0
x[981] 1
x[982] 1
x[983] 0
x[984] 0
x[985] 0
x[986] 1
x[987] 1
x[988] 0
x[989] 0
x[990] 1
x[991] 1
x[992] 0
x[993] 0
x[994] 1
x[995] 1
x[996] 1
x[997] 1
x[998] 0
x[999] 0
